<?xml version = "1.0" encoding="UTF-8" standalone="yes"?>
<CPLEXSolution version="1.2">
 <header
   problemName="IloCplex"
   solutionName="p0"
   solutionIndex="-1"
   objectiveValue="258808"
   solutionTypeValue="3"
   solutionTypeString="primal"
   solutionStatusValue="127"
   solutionStatusString="integer feasible solution"
   solutionMethodString="mip"
   primalFeasible="0"
   dualFeasible="0"
   writeLevel="3"/>
 <quality
   epInt="1.0000000000000001e-05"
   epRHS="9.9999999999999995e-07"
   maxIntInfeas="0"
   maxPrimalInfeas="0"
   maxX="692"
   maxSlack="592"/>
 <variables>
  <variable index="1" value="692"/>
  <variable index="2" value="692"/>
  <variable index="4" value="692"/>
  <variable index="5" value="692"/>
  <variable index="6" value="692"/>
  <variable index="8" value="692"/>
  <variable index="49" value="1"/>
  <variable index="198" value="1"/>
  <variable index="309" value="1"/>
  <variable index="338" value="1"/>
  <variable index="436" value="1"/>
  <variable index="548" value="1"/>
  <variable index="684" value="1"/>
  <variable index="732" value="1"/>
  <variable index="842" value="1"/>
  <variable index="1008" value="1"/>
  <variable index="1096" value="1"/>
  <variable index="1157" value="1"/>
  <variable index="1299" value="1"/>
  <variable index="1328" value="1"/>
  <variable index="1505" value="1"/>
  <variable index="1585" value="1"/>
  <variable index="1667" value="1"/>
  <variable index="1741" value="1"/>
  <variable index="1872" value="1"/>
  <variable index="1978" value="1"/>
  <variable index="2086" value="1"/>
  <variable index="2126" value="1"/>
  <variable index="2295" value="1"/>
  <variable index="2376" value="1"/>
  <variable index="2417" value="1"/>
  <variable index="2558" value="1"/>
  <variable index="2659" value="1"/>
  <variable index="2735" value="1"/>
  <variable index="2813" value="1"/>
  <variable index="2961" value="1"/>
  <variable index="3073" value="1"/>
  <variable index="3121" value="1"/>
  <variable index="3290" value="1"/>
  <variable index="3368" value="1"/>
  <variable index="3425" value="1"/>
  <variable index="3551" value="1"/>
  <variable index="3656" value="1"/>
  <variable index="3777" value="1"/>
  <variable index="3823" value="1"/>
  <variable index="3954" value="1"/>
  <variable index="4089" value="1"/>
  <variable index="4119" value="1"/>
  <variable index="4239" value="1"/>
  <variable index="4334" value="1"/>
  <variable index="4450" value="1"/>
  <variable index="4587" value="1"/>
  <variable index="4622" value="1"/>
  <variable index="4715" value="1"/>
  <variable index="4852" value="1"/>
  <variable index="4955" value="1"/>
  <variable index="5030" value="1"/>
  <variable index="5188" value="1"/>
  <variable index="5245" value="1"/>
  <variable index="5312" value="1"/>
  <variable index="5411" value="1"/>
  <variable index="5510" value="1"/>
  <variable index="5679" value="1"/>
  <variable index="5774" value="1"/>
  <variable index="5883" value="1"/>
  <variable index="6000" value="1"/>
  <variable index="6066" value="1"/>
  <variable index="6116" value="1"/>
  <variable index="6280" value="1"/>
  <variable index="6324" value="1"/>
  <variable index="6444" value="1"/>
  <variable index="6575" value="1"/>
  <variable index="6682" value="1"/>
  <variable index="6801" value="1"/>
  <variable index="6907" value="1"/>
  <variable index="6965" value="1"/>
  <variable index="7091" value="1"/>
  <variable index="7164" value="1"/>
  <variable index="7303" value="1"/>
  <variable index="7362" value="1"/>
  <variable index="7418" value="1"/>
  <variable index="7594" value="1"/>
  <variable index="7670" value="1"/>
  <variable index="7793" value="1"/>
  <variable index="7906" value="1"/>
  <variable index="7920" value="1"/>
  <variable index="8069" value="1"/>
  <variable index="8181" value="1"/>
  <variable index="8263" value="1"/>
  <variable index="8347" value="1"/>
  <variable index="8446" value="1"/>
  <variable index="8553" value="1"/>
  <variable index="8629" value="1"/>
  <variable index="8771" value="1"/>
  <variable index="8897" value="1"/>
  <variable index="8914" value="1"/>
  <variable index="9102" value="1"/>
  <variable index="9192" value="1"/>
  <variable index="9260" value="1"/>
  <variable index="9331" value="1"/>
  <variable index="9440" value="1"/>
  <variable index="9537" value="1"/>
  <variable index="9633" value="1"/>
  <variable index="9804" value="1"/>
  <variable index="9843" value="1"/>
  <variable index="9927" value="1"/>
  <variable index="10011" value="1"/>
  <variable index="10012" value="1"/>
  <variable index="10014" value="1"/>
  <variable index="10015" value="1"/>
  <variable index="10016" value="1"/>
  <variable index="10018" value="1"/>
  <variable index="10020" value="692"/>
 </variables>
</CPLEXSolution>
